p edge 900 4486
1 805
1 2
1 899
1 669
1 260
2 154
2 3
2 224
2 384
2 310
3 824
3 298
3 4
3 786
3 16
4 476
4 782
4 5
4 313
4 107
5 130
5 726
5 6
5 313
5 82
6 501
6 7
6 373
6 377
6 291
7 8
7 626
7 188
7 772
7 473
8 486
8 458
8 340
8 468
8 9
9 591
9 1
9 664
9 10
9 159
10 514
10 503
10 11
10 412
10 42
11 837
11 212
11 12
11 415
11 744
12 306
12 497
12 236
12 13
12 692
13 493
13 14
13 520
13 700
13 862
14 15
14 750
14 525
14 886
14 664
15 854
15 690
15 16
15 570
15 546
16 762
16 19
16 165
16 893
16 17
17 420
17 18
17 248
17 456
17 586
18 657
18 100
18 755
18 19
18 449
19 505
19 20
19 597
19 578
19 85
20 637
20 872
20 667
20 529
20 21
21 794
21 173
21 267
21 663
21 22
22 480
22 172
22 23
22 585
22 517
23 24
23 528
23 781
23 169
23 164
24 853
24 587
24 25
24 682
24 204
25 599
25 124
25 26
25 649
25 443
26 431
26 661
26 120
26 531
26 27
27 114
27 220
27 28
27 732
27 301
28 29
28 586
28 770
28 836
28 189
29 30
29 839
29 844
29 514
29 580
30 385
30 306
30 300
30 95
30 31
31 205
31 895
31 476
31 32
31 44
32 199
32 496
32 596
32 33
32 449
33 162
33 107
33 34
33 7
33 663
34 226
34 280
34 35
34 325
34 544
35 785
35 528
35 586
35 203
35 36
36 686
36 884
36 37
36 185
36 835
37 38
37 545
37 480
37 153
37 702
38 389
38 40
38 465
38 39
38 824
39 253
39 40
39 638
39 646
39 513
40 228
40 590
40 47
40 457
40 41
41 39
41 62
41 42
41 712
42 874
42 198
42 419
42 117
42 43
43 44
43 741
43 385
43 231
43 316
44 45
44 169
44 491
44 834
44 877
45 732
45 46
45 288
45 137
45 849
46 684
46 636
46 396
46 47
46 796
47 48
47 265
47 660
47 535
47 350
48 159
48 254
48 137
48 818
48 49
49 823
49 50
49 685
49 152
49 186
50 51
50 496
50 213
50 657
51 10
51 52
51 45
51 74
51 841
52 730
52 53
52 531
52 372
52 460
53 707
53 139
53 360
53 731
53 54
54 252
54 799
54 55
54 521
54 143
55 779
55 61
55 56
55 723
55 520
56 737
56 130
56 109
56 774
56 57
57 515
57 564
57 546
57 58
57 861
58 144
58 739
58 627
58 59
58 719
59 234
59 514
59 293
59 87
59 60
60 460
60 688
60 743
60 524
60 61
61 170
61 62
61 311
61 180
61 464
62 685
62 239
62 63
62 553
62 462
63 80
63 181
63 828
63 544
63 64
64 136
64 149
64 65
64 211
64 694
65 695
65 716
65 840
65 66
65 405
66 225
66 626
66 336
66 266
66 67
67 855
67 223
67 68
67 75
67 235
68 563
68 294
68 516
68 69
68 253
69 29
69 476
69 475
69 17
69 70
70 225
70 655
70 71
70 291
70 824
71 215
71 72
71 186
71 550
71 64
72 211
72 826
72 73
72 265
72 787
73 290
73 773
73 405
73 232
73 74
74 212
74 799
74 75
74 394
74 263
75 342
75 550
75 735
75 76
75 369
76 299
76 253
76 77
76 117
77 78
77 149
77 377
77 313
77 628
78 408
78 79
78 849
78 115
78 880
79 688
79 695
79 80
79 777
79 813
80 749
80 564
80 767
80 742
80 81
81 142
81 411
81 565
81 82
81 767
82 825
82 597
82 271
82 83
82 249
83 881
83 414
83 84
83 555
83 47
84 85
84 739
84 91
84 392
84 679
85 99
85 688
85 86
85 88
85 230
86 859
86 87
86 801
86 529
86 189
87 894
87 691
87 88
87 474
87 438
88 567
88 401
88 89
88 349
88 154
89 335
89 807
89 90
89 373
89 834
90 154
90 91
90 126
90 765
90 408
91 821
91 434
91 373
91 92
91 487
92 75
92 434
92 93
92 387
92 848
93 449
93 427
93 94
93 771
93 156
94 219
94 874
94 40
94 95
94 821
95 240
95 260
95 96
95 478
95 671
96 481
96 630
96 803
96 97
96 567
97 414
97 90
97 98
97 320
97 364
98 376
98 99
98 789
98 706
98 718
99 184
99 595
99 63
99 100
99 888
100 444
100 699
100 101
100 142
100 404
101 643
101 43
101 671
101 102
101 567
102 299
102 103
102 498
102 807
102 133
103 278
103 104
103 265
103 347
103 691
104 89
104 868
104 520
104 616
104 105
105 852
105 809
105 499
105 641
105 106
106 107
106 657
106 470
106 584
106 75
107 78
107 778
107 108
107 704
107 241
108 350
108 513
108 109
108 659
108 885
109 346
109 169
109 634
109 110
109 730
110 303
110 729
110 359
110 651
110 111
111 23
111 147
111 112
111 893
111 591
112 22
112 113
112 598
112 522
112 386
113 861
113 232
113 661
113 114
113 451
114 423
114 115
114 347
114 308
114 497
115 871
115 783
115 116
115 16
115 456
116 215
116 808
116 304
116 571
116 117
117 429
117 54
117 211
117 398
117 118
118 119
118 658
118 102
118 390
118 587
119 120
119 180
119 433
119 769
119 422
120 850
120 721
120 121
120 702
120 526
121 157
121 619
121 239
121 628
121 122
122 624
122 134
122 123
122 95
122 161
123 276
123 192
123 710
123 127
123 124
124 592
124 443
124 125
124 221
124 201
125 126
125 839
125 418
125 611
125 594
126 462
126 127
126 458
126 98
126 727
127 626
127 188
127 328
127 211
127 128
128 384
128 202
128 580
128 129
128 896
129 459
129 461
129 130
129 165
129 246
130 131
130 640
130 875
130 115
130 164
131 327
131 132
131 442
131 192
131 9
132 797
132 412
132 70
132 133
132 481
133 37
133 794
133 344
133 134
133 163
134 528
134 135
134 876
134 141
134 780
135 29
135 465
135 325
135 71
135 136
136 100
136 62
136 661
136 137
136 60
137 846
137 138
137 385
137 702
137 882
138 168
138 255
138 815
138 159
138 139
139 140
139 4
139 811
139 594
139 643
140 733
140 807
140 25
140 141
140 479
141 264
141 518
141 142
141 195
141 72
142 786
142 143
142 246
142 433
142 421
143 70
143 711
143 897
143 894
143 144
144 689
144 145
144 895
144 582
144 278
145 876
145 736
145 146
145 496
145 191
146 616
146 634
146 760
146 240
146 147
147 285
147 148
147 712
147 113
147 469
148 498
148 149
148 185
148 658
148 268
149 877
149 265
149 150
149 398
149 57
150 767
150 151
150 727
150 891
150 215
151 655
151 278
151 451
151 193
151 152
152 750
152 286
152 144
152 153
152 414
153 829
153 366
153 154
153 392
153 61
154 155
154 655
154 472
154 107
154 442
155 357
155 759
155 120
155 156
155 302
156 138
156 157
156 721
156 527
156 67
157 460
157 195
157 158
157 461
157 431
158 159
158 398
158 345
158 53
158 207
159 289
159 160
159 300
159 355
159 394
160 793
160 161
160 559
160 289
160 843
161 162
161 819
161 228
161 825
161 236
162 703
162 414
162 163
162 62
162 546
163 411
163 593
163 164
163 488
163 223
164 114
164 165
164 20
164 343
164 138
165 166
165 139
165 608
165 885
165 851
166 68
166 155
166 167
166 412
166 700
167 544
167 5
167 168
167 52
167 455
168 183
168 790
168 492
168 169
169 199
169 170
169 528
169 799
169 173
170 508
170 20
170 384
170 171
170 358
171 872
171 418
171 804
171 172
171 455
172 808
172 511
172 771
172 173
172 476
173 174
173 646
173 813
173 206
173 495
174 155
174 341
174 175
174 472
174 173
175 737
175 503
175 176
175 846
175 255
176 232
176 270
176 869
176 622
176 177
177 762
177 254
177 779
177 178
177 594
178 67
178 668
178 174
178 794
178 179
179 180
179 721
179 713
179 600
179 142
180 564
180 786
180 181
180 86
180 836
181 82
181 852
181 182
181 881
181 332
182 762
182 430
182 471
182 313
182 183
183 184
183 484
183 2
183 515
183 497
184 872
184 185
184 24
184 703
184 767
185 833
185 393
185 294
185 769
185 186
186 187
186 662
186 489
186 111
186 120
187 51
187 162
187 700
187 188
187 582
188 410
188 189
188 338
188 124
188 356
189 790
189 817
189 190
189 141
189 776
190 822
190 332
190 707
190 191
190 103
191 767
191 634
191 192
191 153
191 479
192 862
192 256
192 352
192 19
192 193
193 80
193 194
193 385
193 662
193 488
194 413
194 485
194 492
194 300
194 195
195 422
195 309
195 785
195 685
195 196
196 552
196 197
196 885
196 377
196 101
197 763
197 198
197 708
197 254
197 623
198 353
198 380
198 764
198 199
199 596
199 535
199 200
199 595
199 365
200 555
200 511
200 364
200 201
200 515
201 536
201 675
201 202
201 318
201 67
202 203
202 237
202 19
202 749
202 105
203 84
203 204
203 38
203 389
203 825
204 474
204 205
204 21
204 79
204 342
205 72
205 873
205 227
205 206
205 352
206 58
206 567
206 207
206 360
206 512
207 420
207 633
207 881
207 208
207 682
208 302
208 209
208 11
208 517
208 133
209 319
209 210
209 552
209 277
209 97
210 712
210 577
210 375
210 211
210 108
211 212
211 139
211 463
211 570
211 286
212 692
212 101
212 539
212 296
212 213
213 214
213 171
213 409
213 245
213 484
214 671
214 92
214 215
214 829
214 60
215 216
215 64
215 626
215 595
215 289
216 180
216 381
216 279
216 217
216 59
217 632
217 316
217 776
217 218
217 578
218 122
218 219
218 529
218 763
218 443
219 291
219 220
219 267
219 130
219 254
220 221
220 556
220 466
220 825
220 874
221 222
221 364
221 354
221 776
221 147
222 223
222 208
222 464
222 175
222 384
223 188
223 872
223 224
223 111
223 761
224 736
224 90
224 225
224 672
224 439
225 664
225 233
225 227
225 361
225 226
226 225
226 222
226 480
226 157
226 227
227 285
227 780
227 228
227 229
227 82
228 300
228 745
228 288
228 229
228 18
229 230
229 597
229 547
229 532
229 333
230 603
230 728
230 689
230 231
230 37
231 194
231 232
231 161
231 693
231 823
232 627
232 444
232 883
232 329
232 233
233 234
233 3
233 298
233 660
233 579
234 107
234 650
234 453
234 567
234 235
235 236
235 672
235 819
235 174
235 548
236 102
236 216
236 577
236 608
236 237
237 259
237 616
237 894
237 238
237 697
238 19
238 646
238 518
238 239
238 668
239 240
239 389
239 435
239 296
239 720
240 109
240 391
240 390
240 241
240 314
241 512
241 371
241 871
241 484
241 242
242 792
242 243
242 847
242 391
242 252
243 430
243 116
243 218
243 821
243 244
244 615
244 245
244 889
244 233
244 495
245 788
245 768
245 394
245 492
245 246
246 545
246 475
246 247
246 238
246 810
247 557
247 248
247 426
247 378
247 649
248 249
248 532
248 209
248 147
248 436
249 250
249 696
249 544
249 74
250 355
250 570
250 251
250 443
250 733
251 350
251 252
251 578
251 492
251 538
252 109
252 253
252 550
252 854
252 135
253 593
253 348
253 160
253 246
253 254
254 641
254 255
254 106
254 768
254 363
255 444
255 537
255 557
255 185
255 256
256 794
256 531
256 257
256 642
256 449
257 692
257 258
257 519
257 241
257 496
258 302
258 259
258 567
258 703
258 648
259 218
259 711
259 637
259 523
259 260
260 261
260 199
260 429
260 591
260 575
261 10
261 490
261 207
261 262
261 876
262 110
262 407
262 263
262 55
262 538
263 264
263 716
263 827
263 491
263 754
264 265
264 593
264 67
264 46
264 93
265 657
265 518
265 266
265 862
265 340
266 498
266 761
266 882
266 267
266 749
267 772
267 268
267 580
267 143
267 326
268 167
268 269
268 501
268 882
268 689
269 270
269 652
269 801
269 98
269 821
270 677
270 717
270 380
270 326
270 271
271 272
271 845
271 590
271 36
271 317
272 233
272 619
272 259
272 273
272 467
273 274
273 832
273 158
273 275
273 174
274 122
274 794
274 5
274 893
274 275
275 833
275 276
275 65
275 344
275 290
276 133
276 312
276 670
276 277
276 86
277 184
277 243
277 662
277 764
277 278
278 279
278 271
278 786
278 66
278 641
279 835
279 345
279 280
279 221
279 654
280 830
280 404
280 256
280 348
280 281
281 678
281 282
281 317
281 747
281 536
282 336
282 284
282 522
282 290
282 283
283 284
283 246
283 775
283 473
283 218
284 232
284 642
284 56
284 598
284 285
285 286
285 818
285 13
285 293
285 47
286 463
286 442
286 700
286 287
286 250
287 288
287 495
287 675
287 67
287 192
288 385
288 629
288 163
288 289
288 56
289 854
289 752
289 240
289 835
289 290
290 447
290 291
290 524
290 866
290 662
291 459
291 292
291 144
291 59
291 244
292 280
292 167
292 364
292 293
292 309
293 548
293 867
293 522
293 294
293 540
294 295
294 450
294 646
294 893
294 747
295 680
295 296
295 415
295 567
295 258
296 651
296 539
296 161
296 297
296 534
297 478
297 298
297 61
297 742
297 459
298 825
298 379
298 299
298 242
298 649
299 562
299 300
299 746
299 768
299 653
300 283
300 28
300 301
300 338
300 169
301 243
301 302
301 114
301 313
301 646
302 287
302 271
302 303
302 774
302 167
303 304
303 589
303 675
303 167
303 353
304 645
304 160
304 305
304 810
304 776
305 531
305 306
305 634
305 272
305 163
306 307
306 196
306 635
306 124
306 62
307 308
307 639
307 291
307 427
307 848
308 25
308 309
308 312
308 854
308 882
309 310
309 148
309 66
309 674
309 361
310 830
310 171
310 381
310 390
310 311
311 554
311 787
311 312
311 71
311 533
312 707
312 883
312 705
312 616
312 313
313 812
313 314
313 333
313 91
313 233
314 789
314 471
314 73
314 315
314 47
315 720
315 170
315 292
315 181
315 316
316 317
316 475
316 333
316 585
316 560
317 423
317 281
317 318
317 159
317 109
318 405
318 424
318 578
318 319
318 379
319 211
319 649
319 219
319 877
319 320
320 562
320 321
320 830
320 14
320 750
321 564
321 322
321 180
321 549
321 490
322 323
322 328
322 110
322 813
322 648
323 848
323 258
323 111
323 414
323 324
324 228
324 710
324 157
324 325
324 538
325 718
325 165
325 395
325 595
325 326
326 2
326 288
326 327
326 381
326 749
327 328
327 616
327 813
327 794
327 814
328 329
328 344
328 396
328 670
328 142
329 254
329 899
329 686
329 26
329 330
330 331
330 836
330 180
330 815
330 426
331 239
331 378
331 291
331 332
331 750
332 783
332 195
332 277
332 333
332 111
333 222
333 617
333 334
333 597
333 598
334 335
334 213
334 457
334 373
334 868
335 121
335 336
335 676
335 693
335 57
336 337
336 486
336 543
336 220
336 762
337 338
337 600
337 123
337 687
337 201
338 339
338 597
338 654
338 424
338 209
339 221
339 232
339 340
339 36
339 162
340 342
340 757
340 105
340 112
340 341
341 342
341 672
341 65
341 240
341 738
342 582
342 343
342 436
342 409
342 108
343 156
343 886
343 229
343 344
343 616
344 345
344 899
344 84
344 247
344 897
345 346
345 236
345 891
345 559
345 894
346 813
346 92
346 347
346 212
346 119
347 854
347 348
347 571
347 861
347 26
348 749
348 349
348 519
348 191
348 200
349 571
349 476
349 563
349 350
349 896
350 139
350 76
350 351
350 605
350 745
351 352
351 554
351 656
351 212
351 712
352 792
352 586
352 893
352 5
352 353
353 332
353 758
353 150
353 204
353 354
354 355
354 176
354 569
354 884
354 108
355 56
355 703
355 356
355 569
355 363
356 104
356 357
356 560
356 291
356 690
357 611
357 429
357 131
357 358
357 362
358 359
358 752
358 67
358 54
358 225
359 809
359 360
359 603
359 457
359 332
360 780
360 820
360 278
360 361
360 728
361 358
361 362
361 772
361 377
361 122
362 77
362 363
362 327
362 772
362 343
363 468
363 364
363 398
363 42
363 595
364 265
364 365
364 465
364 286
364 652
365 817
365 454
365 366
365 647
365 359
366 367
366 671
366 162
366 542
366 683
367 204
367 368
367 85
367 761
367 269
368 230
368 470
368 197
368 369
368 684
369 312
369 866
369 493
369 370
369 333
370 393
370 346
370 506
370 878
370 371
371 73
371 293
371 224
371 372
371 246
372 239
372 808
372 373
372 228
372 536
373 17
373 340
373 374
373 80
373 747
374 375
374 783
374 320
374 881
374 845
375 673
375 216
375 3
375 376
375 775
376 590
376 872
376 502
376 530
376 377
377 515
377 454
377 378
377 163
377 568
378 674
378 379
378 599
378 749
378 257
379 581
379 244
379 380
379 545
379 597
380 836
380 381
380 395
380 541
380 830
381 368
381 382
381 231
381 529
381 400
382 376
382 142
382 383
382 832
382 170
383 384
383 83
383 172
383 13
383 559
384 879
384 385
384 466
384 262
384 296
385 560
385 386
385 98
385 416
385 142
386 607
386 54
386 705
386 447
386 387
387 789
387 388
387 165
387 431
387 76
388 733
388 73
388 124
388 86
388 389
389 405
389 106
389 390
389 152
389 560
390 129
390 703
390 41
390 391
390 765
391 235
391 837
391 520
391 271
391 392
392 609
392 273
392 116
392 393
392 24
393 394
393 193
393 90
393 858
393 423
394 163
394 395
394 564
394 614
394 479
395 785
395 809
395 396
395 249
395 694
396 535
396 678
396 397
396 845
396 742
397 398
397 299
397 463
397 806
397 277
398 814
398 148
398 220
398 738
398 399
399 877
399 400
399 777
399 496
399 316
400 401
400 78
400 536
400 813
400 844
401 402
401 296
401 90
401 674
401 303
402 882
402 366
402 403
402 673
403 404
403 243
403 523
403 506
403 674
404 750
404 696
404 223
404 307
404 405
405 227
405 312
405 590
405 549
405 406
406 531
406 48
406 759
406 709
406 407
407 847
407 900
407 408
407 730
407 519
408 337
408 409
408 512
408 392
408 218
409 460
409 321
409 327
409 410
409 504
410 205
410 824
410 411
410 511
410 305
411 663
411 497
411 328
411 351
411 412
412 135
412 474
412 129
412 361
412 413
413 833
413 650
413 98
413 414
413 105
414 415
414 695
414 783
414 813
414 142
415 64
415 837
415 458
415 416
415 762
416 393
416 535
416 296
416 417
416 774
417 308
417 418
417 397
417 793
417 333
418 864
418 562
418 419
418 207
418 743
419 203
419 420
419 275
419 807
419 811
420 421
420 623
420 489
420 38
420 484
421 422
421 434
421 646
421 551
421 222
422 642
422 250
422 897
422 556
422 423
423 849
423 424
423 33
423 240
423 838
424 479
424 770
424 734
424 425
424 612
425 211
425 225
425 554
425 426
425 633
426 36
426 558
426 439
426 427
426 659
427 755
427 428
427 332
427 515
427 522
428 429
428 159
428 216
428 715
428 635
429 430
429 465
429 6
429 817
429 156
430 662
430 431
430 537
430 107
430 704
431 2
431 358
431 432
431 558
431 828
432 468
432 433
432 67
432 214
432 540
433 830
433 426
433 182
433 317
433 434
434 798
434 490
434 435
434 703
434 677
435 330
435 205
435 438
435 436
435 187
436 376
436 517
436 437
436 252
436 74
437 842
437 740
437 684
437 438
437 429
438 439
438 490
438 691
438 74
438 368
439 618
439 262
439 440
439 96
439 613
440 284
440 170
440 494
440 349
440 441
441 314
441 526
441 442
441 560
441 434
442 392
442 518
442 443
442 254
442 118
443 80
443 543
443 833
443 17
443 444
444 664
444 856
444 445
444 673
444 492
445 119
445 521
445 269
445 150
445 446
446 498
446 246
446 513
446 447
446 767
447 209
447 448
447 95
447 531
447 847
448 84
448 487
448 740
448 449
448 356
449 891
449 450
449 298
449 253
449 649
450 350
450 114
450 451
450 38
450 216
451 798
451 323
451 452
451 517
451 388
452 358
452 156
452 453
452 571
452 15
453 89
453 37
453 293
453 561
453 454
454 212
454 789
454 524
454 455
454 443
455 718
455 385
455 362
455 250
455 456
456 457
456 361
456 366
456 525
456 684
457 737
457 59
457 458
457 395
457 267
458 737
458 624
458 430
458 727
458 459
459 297
459 846
459 493
459 688
459 460
460 90
460 806
460 461
460 678
460 127
461 407
461 462
461 740
461 717
461 254
462 626
462 604
462 646
462 463
462 610
463 464
463 452
463 373
463 611
463 396
464 683
464 666
464 72
464 869
464 465
465 593
465 203
465 662
465 341
465 466
466 729
466 533
466 467
466 175
466 174
467 412
467 451
467 468
467 470
467 663
468 316
468 352
468 69
468 353
468 469
469 85
469 824
469 470
469 154
469 509
470 533
470 669
470 56
470 514
470 471
471 847
471 657
471 454
471 472
471 73
472 146
472 473
472 649
472 171
472 425
473 366
473 474
473 259
473 438
473 813
474 475
474 503
474 299
474 558
474 593
475 330
475 476
475 104
475 231
475 430
476 74
476 477
476 58
476 233
476 8
477 478
477 104
477 831
477 262
477 178
478 479
478 93
478 411
478 518
478 535
479 405
479 243
479 480
479 396
479 494
480 211
480 101
480 481
480 828
480 576
481 39
481 442
481 452
481 482
482 576
482 483
482 780
482 588
482 856
483 761
483 201
483 824
483 724
483 484
484 456
484 485
484 835
484 3
484 749
485 705
485 784
485 771
485 754
485 486
486 214
486 871
486 487
486 832
486 770
487 6
487 324
487 488
487 869
487 835
488 114
488 732
488 644
488 489
488 125
489 805
489 490
489 595
489 739
489 20
490 263
490 491
490 546
490 410
490 266
491 471
491 253
491 551
491 325
491 492
492 744
492 570
492 806
492 493
492 501
493 118
493 494
493 682
493 603
493 16
494 84
494 289
494 148
494 495
494 182
495 496
495 626
495 433
495 462
495 126
496 510
496 806
496 497
496 870
496 139
497 848
497 634
497 498
497 673
497 695
498 704
498 111
498 733
498 499
498 840
499 568
499 55
499 791
499 500
499 330
500 545
500 501
500 526
500 861
500 666
501 23
501 392
501 502
501 485
501 463
502 803
502 339
502 503
502 359
502 161
503 855
503 504
503 431
503 485
503 84
504 430
504 177
504 82
504 625
504 505
505 416
505 16
505 387
505 506
505 554
506 507
506 608
506 818
506 710
506 349
507 13
507 335
507 681
507 492
507 508
508 719
508 111
508 171
508 340
508 509
509 651
509 119
509 535
509 46
509 510
510 511
510 643
510 534
510 381
510 591
511 847
511 512
511 376
511 211
511 830
512 614
512 714
512 765
512 404
512 513
513 721
513 514
513 273
513 39
513 676
514 590
514 311
514 478
514 515
514 170
515 354
515 543
515 516
515 276
515 708
516 85
516 517
516 5
516 747
516 462
517 779
517 518
517 737
517 804
517 710
518 519
518 542
518 872
518 457
518 887
519 520
519 728
519 896
519 669
519 586
520 769
520 324
520 166
520 521
520 878
521 87
521 522
521 414
521 254
521 276
522 71
522 387
522 523
522 78
522 346
523 131
523 301
523 125
523 524
523 527
524 740
524 718
524 257
524 525
524 107
525 439
525 194
525 526
525 660
525 203
526 568
526 522
526 499
526 527
526 342
527 381
527 753
527 488
527 619
527 528
528 15
528 492
528 110
528 529
528 536
529 744
529 160
529 530
529 616
529 578
530 790
530 604
530 274
530 592
530 531
531 817
531 532
531 548
531 329
531 57
532 799
532 683
532 533
532 544
532 137
533 534
533 228
533 688
533 662
533 7
534 741
534 821
534 535
534 30
534 829
535 713
535 715
535 536
535 734
535 60
536 594
536 670
536 537
536 431
536 651
537 527
537 538
537 86
537 475
537 61
538 411
538 326
538 130
538 773
538 539
539 540
539 16
539 436
539 672
539 36
540 654
540 422
540 63
540 541
540 168
541 374
541 309
541 370
541 542
541 736
542 558
542 543
542 100
542 783
542 110
543 358
543 331
543 544
543 434
544 545
544 896
544 359
544 667
544 143
545 546
545 328
545 366
545 9
545 25
546 547
546 896
546 631
546 545
546 594
547 317
547 554
547 707
547 37
547 548
548 542
548 641
548 549
548 122
548 445
549 519
549 505
549 392
549 550
549 277
550 782
550 31
550 551
550 612
550 896
551 67
551 763
551 86
551 619
551 552
552 404
552 567
552 79
552 553
552 412
553 393
553 273
553 291
553 554
553 887
554 780
554 395
554 555
554 710
555 635
555 279
555 658
555 416
555 556
556 453
556 557
556 340
556 132
556 200
557 169
557 505
557 748
557 558
557 506
558 492
558 30
558 559
558 97
558 750
559 560
559 855
559 631
559 263
559 645
560 798
560 900
560 235
560 660
560 561
561 843
561 226
561 169
561 562
561 874
562 563
562 654
562 759
562 415
562 900
563 564
563 536
563 489
563 455
563 79
564 125
564 257
564 565
564 898
564 736
565 563
565 634
565 635
565 732
565 566
566 642
566 35
566 233
566 289
566 567
567 588
567 568
567 254
567 554
567 83
568 569
568 714
568 712
568 349
568 210
569 684
569 838
569 417
569 570
569 36
570 572
570 135
570 398
570 690
570 571
571 848
571 502
571 572
571 177
571 643
572 573
572 853
572 379
572 357
572 879
573 278
573 101
573 553
573 574
573 510
574 366
574 698
574 575
574 105
574 212
575 96
575 121
575 684
575 708
575 576
576 459
576 577
576 268
576 322
576 740
577 355
577 83
577 595
577 579
577 578
578 613
578 497
578 176
578 579
578 599
579 161
579 8
579 598
579 580
579 792
580 616
580 833
580 581
580 630
580 416
581 582
581 661
581 506
581 586
581 815
582 50
582 811
582 583
582 45
582 727
583 875
583 409
583 584
583 466
583 528
584 675
584 76
584 709
584 585
584 8
585 586
585 92
585 692
585 571
585 285
586 671
586 214
586 743
586 646
586 587
587 740
587 588
587 439
587 499
587 330
588 589
588 43
588 598
588 879
588 552
589 567
589 257
589 711
589 349
589 590
590 591
590 476
590 783
590 492
590 743
591 662
591 689
591 592
591 441
591 501
592 745
592 31
592 337
592 597
592 593
593 604
593 416
593 594
593 471
593 354
594 839
594 595
594 715
594 286
594 336
595 191
595 840
595 596
595 160
595 545
596 641
596 597
596 110
596 864
596 659
597 119
597 598
597 235
597 760
597 528
598 775
598 516
598 879
598 599
598 699
599 536
599 633
599 755
599 176
599 600
600 220
600 601
600 870
600 634
600 49
601 602
601 747
601 732
601 335
601 870
602 1
602 167
602 819
602 603
602 191
603 607
603 300
603 460
603 604
603 379
604 22
604 605
604 490
604 426
604 641
605 115
605 525
605 606
605 857
605 312
606 751
606 29
606 135
606 501
606 607
607 894
607 608
607 52
607 411
607 494
608 609
608 374
608 173
608 458
608 347
609 395
609 349
609 809
609 610
609 741
610 611
610 298
610 715
610 740
610 672
611 612
611 532
611 493
611 55
611 608
612 248
612 613
612 64
612 310
612 65
613 57
613 479
613 645
613 614
613 52
614 722
614 615
614 77
614 178
614 522
615 288
615 276
615 59
615 616
615 262
616 617
616 361
616 318
616 575
616 752
617 449
617 618
617 105
617 37
617 327
618 575
618 537
618 406
618 659
618 619
619 739
619 486
619 620
619 141
619 810
620 71
620 404
620 621
620 96
620 260
621 723
621 274
621 299
621 622
621 377
622 31
622 547
622 623
622 238
622 539
623 38
623 12
623 614
623 624
623 398
624 529
624 822
624 875
624 477
624 625
625 794
625 219
625 626
625 21
625 248
626 473
626 431
626 403
626 627
626 186
627 628
627 331
627 774
627 3
627 338
628 629
628 818
628 828
628 805
628 242
629 630
629 50
629 17
629 53
629 643
630 42
630 631
630 686
630 105
630 779
631 484
631 632
631 287
631 876
631 269
632 882
632 591
632 406
632 799
632 633
633 236
633 101
633 634
633 521
633 67
634 237
634 767
634 447
634 553
634 635
635 204
635 313
635 636
635 350
635 54
636 761
636 637
636 752
636 781
636 460
637 424
637 472
637 25
637 638
637 557
638 639
638 499
638 771
638 6
638 606
639 101
639 591
639 144
639 850
639 640
640 832
640 32
640 641
640 571
640 540
641 411
641 642
641 802
641 120
641 870
642 615
642 643
642 570
642 516
642 838
643 120
643 893
643 644
643 342
643 744
644 635
644 299
644 261
644 645
644 468
645 232
645 715
645 298
645 646
645 403
646 86
646 438
646 367
646 647
646 205
647 736
647 575
647 309
647 648
647 206
648 594
648 288
648 853
648 649
648 50
649 19
649 650
649 403
649 4
649 204
650 67
650 800
650 651
650 351
650 501
651 652
651 838
651 8
651 112
651 704
652 12
652 653
652 286
652 551
652 297
653 654
653 80
653 508
653 601
653 540
654 190
654 623
654 845
654 655
654 562
655 896
655 656
655 629
655 835
655 804
656 472
656 363
656 657
656 395
656 283
657 830
657 658
657 338
657 104
657 102
658 659
658 566
658 714
658 532
658 726
659 660
659 444
659 851
659 624
659 308
660 692
660 675
660 661
660 13
660 684
661 253
661 662
661 184
661 606
661 886
662 663
662 790
662 783
662 441
662 353
663 164
663 347
663 472
663 664
663 632
664 504
664 509
664 747
664 340
664 665
665 795
665 602
665 21
665 666
665 410
666 332
666 667
666 407
666 268
666 599
667 608
667 830
667 529
667 668
667 107
668 166
668 392
668 669
668 81
668 745
669 670
669 835
669 811
669 516
669 153
670 671
670 255
670 806
670 248
670 371
671 672
671 115
671 486
671 729
671 350
672 839
672 402
672 857
672 171
672 673
673 15
673 561
673 403
673 674
673 650
674 333
674 185
674 300
674 675
674 494
675 9
675 643
675 322
675 676
675 693
676 830
676 699
676 490
676 664
676 677
677 221
677 175
677 615
677 678
677 275
678 266
678 629
678 679
678 788
678 523
679 690
679 421
679 680
679 154
679 119
680 232
680 681
680 421
680 189
680 44
681 682
681 3
681 858
681 463
681 501
682 683
682 772
682 167
682 204
682 849
683 710
683 394
683 684
683 570
683 294
684 786
684 53
684 454
684 629
684 685
685 467
685 429
685 503
685 686
685 428
686 588
686 85
686 687
686 830
686 861
687 361
687 432
687 688
687 773
687 714
688 323
688 187
688 689
688 684
688 745
689 761
689 690
689 19
689 823
689 294
690 247
690 103
690 691
690 706
690 502
691 692
691 300
691 772
691 824
691 588
692 233
692 480
692 693
692 593
692 477
693 776
693 28
693 694
693 721
693 375
694 152
694 421
694 695
694 700
694 388
695 329
695 721
695 696
695 104
695 627
696 697
696 259
696 480
696 9
696 505
697 534
697 788
697 698
697 652
697 882
698 798
698 699
698 403
698 742
698 419
699 486
699 700
699 280
699 616
699 299
700 56
700 701
700 480
700 202
700 186
701 702
701 721
701 325
701 376
701 441
702 676
702 430
702 679
702 703
702 171
703 424
703 148
703 704
703 345
703 108
704 322
704 145
704 671
704 705
704 47
705 706
705 16
705 853
705 180
705 710
706 126
706 280
706 452
706 781
706 707
707 708
707 595
707 450
707 829
707 43
708 61
708 899
708 830
708 709
708 819
709 620
709 812
709 2
709 710
709 440
710 711
710 610
710 403
710 497
710 423
711 499
711 712
711 354
711 511
711 356
712 818
712 526
712 740
712 713
712 51
713 470
713 865
713 401
713 714
713 75
714 271
714 715
714 772
714 732
714 420
715 716
715 596
715 761
715 441
715 282
716 671
716 869
716 133
716 513
716 717
717 359
717 231
717 718
718 853
718 765
718 163
718 564
718 719
719 708
719 720
719 612
719 782
719 691
720 315
720 361
720 721
720 346
721 282
721 752
721 396
721 722
721 743
722 540
722 653
722 405
722 723
722 850
723 724
723 447
723 640
723 851
723 596
724 259
724 590
724 534
724 725
724 880
725 647
725 726
725 731
725 301
725 738
726 454
726 727
726 604
726 519
726 722
727 394
727 728
727 232
727 851
727 30
728 3
728 778
728 729
728 196
728 108
729 730
729 831
729 505
729 125
729 355
730 664
730 731
730 271
730 685
731 81
731 210
731 732
731 601
731 82
732 634
732 583
732 194
732 296
732 733
733 678
733 660
733 731
733 523
733 734
734 17
734 116
734 302
734 169
734 735
735 885
735 412
735 689
735 736
735 774
736 755
736 510
736 805
736 737
736 780
737 215
737 738
737 881
737 511
737 814
738 300
738 584
738 291
738 739
738 138
739 740
739 79
739 811
739 243
739 702
740 741
740 17
740 4
740 497
740 191
741 657
741 742
741 890
741 271
741 420
742 882
742 360
742 140
742 605
742 743
743 707
743 424
743 362
743 744
743 432
744 745
744 818
744 382
744 633
744 328
745 1
745 19
745 272
745 746
745 587
746 273
746 664
746 373
746 462
746 747
747 894
747 347
747 748
747 392
747 256
748 468
748 288
748 749
748 891
748 294
749 486
749 881
749 214
749 551
749 750
750 751
750 438
750 536
750 393
750 280
751 366
751 752
751 299
751 627
751 257
752 446
752 114
752 252
752 753
752 655
753 838
753 388
753 754
753 704
753 321
754 650
754 61
754 755
754 101
754 40
755 879
755 756
755 695
755 870
755 769
756 750
756 757
756 41
756 34
756 850
757 525
757 630
757 758
757 697
757 363
758 759
758 497
758 784
758 31
758 878
759 740
759 578
759 715
759 760
759 366
760 118
760 403
760 761
760 234
760 759
761 762
761 4
761 253
761 105
761 858
762 763
762 31
762 434
762 71
762 512
763 581
763 764
763 300
763 713
763 357
764 187
764 765
764 332
764 114
764 295
765 435
765 766
765 661
765 66
765 510
766 877
766 279
766 500
766 344
766 767
767 768
767 618
767 586
767 832
767 804
768 229
768 346
768 728
768 769
768 821
769 770
769 675
769 876
769 267
769 899
770 432
770 263
770 771
770 669
770 170
771 565
771 36
771 772
771 733
771 458
772 773
772 223
772 65
772 513
772 612
773 580
773 782
773 520
773 740
773 774
774 209
774 629
774 366
774 775
774 474
775 650
775 350
775 776
775 269
775 691
776 474
776 777
776 302
776 91
776 533
777 196
777 897
777 372
777 774
777 778
778 567
778 779
778 860
778 734
778 776
779 17
779 504
779 780
779 661
779 544
780 781
780 475
780 577
780 771
780 156
781 86
781 782
781 559
781 74
781 268
782 346
782 802
782 629
782 508
782 783
783 805
783 604
783 784
783 723
783 676
784 313
784 247
784 785
784 385
784 144
785 628
785 391
785 745
785 440
785 786
786 763
786 167
786 320
786 787
786 81
787 899
787 27
787 53
787 788
787 323
788 282
788 226
788 789
788 19
788 657
789 853
789 487
789 790
789 1
789 301
790 502
790 771
790 391
790 604
790 791
791 79
791 552
791 792
791 40
791 550
792 793
792 658
792 72
792 527
792 775
793 317
793 271
793 313
793 794
793 154
794 764
794 779
794 795
794 16
794 576
795 85
795 174
795 73
795 468
795 796
796 797
796 398
796 54
796 41
796 539
797 379
797 798
797 313
797 132
797 234
798 99
798 857
798 799
798 274
798 878
799 800
799 587
799 888
799 782
799 822
800 415
800 801
800 567
800 762
800 899
801 403
801 802
801 280
801 685
801 277
802 614
802 148
802 803
802 307
802 733
803 596
803 142
803 804
803 711
803 517
804 614
804 53
804 805
804 337
804 595
805 629
805 129
805 73
805 178
805 806
806 849
806 447
806 591
806 303
806 807
807 808
807 568
807 109
807 544
807 665
808 219
808 809
808 547
808 670
808 272
809 682
809 810
809 2
809 788
809 715
810 362
810 9
810 684
810 811
810 500
811 812
811 552
811 594
811 80
811 792
812 875
812 752
812 688
812 813
812 840
813 814
813 665
813 697
813 169
813 213
814 584
814 420
814 845
814 362
814 815
815 317
815 654
815 539
815 555
815 816
816 742
816 754
816 34
816 833
816 817
817 298
817 623
817 213
817 790
817 818
818 625
818 124
818 183
818 587
818 819
819 783
819 86
819 26
819 291
819 820
820 117
820 550
820 331
820 671
820 821
821 879
821 822
821 560
821 660
821 345
822 838
822 366
822 545
822 823
822 78
823 479
823 410
823 824
823 776
823 712
824 849
824 825
824 728
824 248
824 305
825 25
825 584
825 826
825 157
825 868
826 543
826 455
826 172
826 827
826 68
827 828
827 416
827 692
827 637
827 90
828 829
828 892
828 74
828 207
828 138
829 683
829 745
829 830
829 736
829 528
830 814
830 94
830 650
830 831
830 498
831 598
831 832
831 394
831 86
831 644
832 617
832 833
832 586
832 175
832 826
833 834
833 535
833 239
833 259
833 598
834 24
834 144
834 573
834 835
834 680
835 481
835 852
835 750
835 757
835 836
836 179
836 550
836 614
836 1
836 837
837 642
837 85
837 838
837 205
837 524
838 169
838 26
838 839
838 820
838 573
839 692
839 533
839 830
839 238
839 840
840 50
840 539
840 862
840 222
840 841
841 362
841 217
841 735
841 842
841 210
842 72
842 843
842 567
842 601
842 238
843 428
843 844
843 40
843 226
843 883
844 562
844 677
844 754
844 845
844 821
845 347
845 825
845 846
845 317
845 518
846 34
846 429
846 588
846 439
846 847
847 387
847 579
847 148
847 848
847 799
848 753
848 849
848 481
848 21
848 548
849 881
849 84
849 850
849 326
849 157
850 514
850 851
850 562
850 819
850 829
851 536
851 852
851 761
851 369
851 279
852 315
852 853
852 81
852 274
852 42
853 242
853 791
853 412
853 278
853 854
854 688
854 101
854 855
854 288
854 37
855 227
855 772
855 673
855 186
855 856
856 407
856 880
856 552
856 857
856 660
857 786
857 858
857 520
857 494
857 574
858 793
858 274
858 127
858 528
858 859
859 860
859 568
859 67
859 393
859 274
860 861
860 146
860 564
860 348
860 723
861 97
861 602
861 186
861 775
861 862
862 650
862 612
862 301
862 434
862 863
863 864
863 245
863 783
863 17
863 214
864 113
864 166
864 70
864 430
864 865
865 320
865 488
865 866
865 687
865 896
866 377
866 646
866 49
866 805
866 867
867 397
867 134
867 598
867 868
867 515
868 882
868 388
868 584
868 631
868 869
869 189
869 272
869 242
869 492
869 870
870 332
870 600
870 23
870 444
870 871
871 287
871 872
871 457
871 332
871 830
872 9
872 560
872 714
872 873
872 774
873 251
873 773
873 33
873 665
873 874
874 376
874 43
874 875
874 389
874 816
875 80
875 326
875 206
875 876
875 631
876 81
876 877
876 190
876 372
876 754
877 703
877 501
877 783
877 878
877 804
878 879
878 348
878 613
878 159
878 713
879 506
879 212
879 880
879 61
879 771
880 83
880 791
880 103
880 881
880 301
881 343
881 73
881 286
881 882
881 702
882 572
882 431
882 883
882 768
882 237
883 884
883 480
883 487
883 609
883 61
884 885
884 186
884 343
884 55
884 345
885 430
885 27
885 832
885 833
885 886
886 668
886 887
886 73
886 620
886 217
887 135
887 390
887 888
887 328
887 78
888 536
888 889
888 779
888 320
888 201
889 435
889 103
889 311
889 101
889 890
890 110
890 672
890 241
890 126
890 891
891 136
891 306
891 751
891 892
891 575
892 534
892 203
892 222
892 302
892 893
893 337
893 682
893 894
893 681
893 664
894 326
894 702
894 221
894 25
894 895
895 805
895 271
895 259
895 299
895 896
896 882
896 340
896 245
896 897
896 603
897 858
897 779
897 710
897 898
897 453
898 498
898 623
898 462
898 899
898 565
899 854
899 498
899 134
899 268
899 900
900 660
900 454
900 103
900 1
900 524
